Minimize
obj1:+20 x(1) +1 x(2) +20 x(3) -11 x(4) -4 x(5) +8 x(6) -18 x(7) +10 x(8) -3 x(9) +13 x(10) -5 x(11) -7 x(12) +20 x(13) +9 x(14) -4 x(15) -16 x(16) +10 x(17) +6 x(18) -17 x(19) -16 x(20)
Subject To
c1:+5 x(1) +3 x(2) +14 x(3) +1 x(4) +14 x(5) +16 x(6) +12 x(7) +6 x(8) +3 x(9) +10 x(10) +3 x(11) +10 x(12) +16 x(13) +20 x(14) +20 x(15) +12 x(16) +8 x(17) +3 x(18) +16 x(19) +15 x(20)  <=  66
c2:+9 x(1) +16 x(2) +10 x(3) +16 x(4) +5 x(5) +10 x(6) +20 x(7) +3 x(8) +18 x(9) +18 x(10) +9 x(11) +3 x(12) +12 x(13) +11 x(14) +10 x(15) +3 x(16) +19 x(17) +9 x(18) +19 x(19) +8 x(20)  <=  87
c3:+1 x(1) +5 x(2) +20 x(3) +20 x(4) +14 x(5) +14 x(6) +17 x(7) +11 x(8) +13 x(9) +19 x(10) +18 x(11) +2 x(12) +9 x(13) +18 x(14) +9 x(15) +4 x(16) +14 x(17) +8 x(18) +4 x(19) +5 x(20)  <=  76
c4:+13 x(1) +14 x(2) +15 x(3) +7 x(4) +9 x(5) +9 x(6) +20 x(7) +17 x(8) +6 x(9) +17 x(10) +8 x(11) +15 x(12) +11 x(13) +2 x(14) +5 x(15) +1 x(16) +8 x(17) +10 x(18) +11 x(19) +6 x(20)  <=  90
c5:+20 x(1) +18 x(2) +12 x(3) +13 x(4) +9 x(5) +8 x(6) +13 x(7) +17 x(8) +18 x(9) +15 x(10) +3 x(11) +7 x(12) +10 x(13) +20 x(14) +4 x(15) +9 x(16) +13 x(17) +12 x(18) +13 x(19) +16 x(20)  <=  60
c6:+2 x(1) +2 x(2) +6 x(3) +7 x(4) +4 x(5) +5 x(6) +8 x(7) +17 x(8) +2 x(9) +15 x(10) +12 x(11) +14 x(12) +14 x(13) +19 x(14) +17 x(15) +10 x(16) +5 x(17) +3 x(18) +19 x(19) +1 x(20)  <=  84
c7:+1 x(1) +20 x(2) +6 x(3) +5 x(4) +4 x(5) +8 x(6) +10 x(7) +5 x(8) +10 x(9) +18 x(10) +18 x(11) +14 x(12) +15 x(13) +12 x(14) +15 x(15) +4 x(16) +12 x(17) +19 x(18) +14 x(19) +14 x(20)  <=  52
c8:+18 x(1) +1 x(2) +18 x(3) +16 x(4) +13 x(5) +1 x(6) +19 x(7) +11 x(8) +15 x(9) +2 x(10) +7 x(11) +11 x(12) +7 x(13) +9 x(14) +11 x(15) +14 x(16) +20 x(17) +13 x(18) +8 x(19) +13 x(20)  <=  90
c9:+5 x(1) +17 x(2) +9 x(3) +15 x(4) +6 x(5) +10 x(6) +1 x(7) +18 x(8) +7 x(9) +7 x(10) +1 x(11) +15 x(12) +2 x(13) +7 x(14) +17 x(15) +1 x(16) +17 x(17) +4 x(18) +15 x(19) +15 x(20)  <=  84
c10:+1 x(1) +17 x(2) +17 x(3) +6 x(4) +12 x(5) +7 x(6) +4 x(7) +3 x(8) +9 x(9) +1 x(10) +3 x(11) +11 x(12) +17 x(13) +15 x(14) +11 x(15) +3 x(16) +6 x(17) +12 x(18) +17 x(19) +20 x(20)  <=  98
c11:+17 x(1) +1 x(2) +2 x(3) +12 x(4) +19 x(5) +20 x(6) +10 x(7) +18 x(8) +11 x(9) +17 x(10) +2 x(11) +10 x(12) +8 x(13) +1 x(14) +12 x(15) +20 x(16) +14 x(17) +19 x(18) +13 x(19) +8 x(20)  <=  54
c12:+3 x(1) +11 x(2) +18 x(3) +9 x(4) +15 x(5) +12 x(6) +11 x(7) +18 x(8) +18 x(9) +11 x(10) +15 x(11) +10 x(12) +16 x(13) +8 x(14) +5 x(15) +20 x(16) +8 x(17) +16 x(18) +2 x(19) +6 x(20)  <=  96
c13:+18 x(1) +19 x(2) +1 x(3) +2 x(4) +14 x(5) +17 x(6) +2 x(7) +5 x(8) +16 x(9) +8 x(10) +10 x(11) +19 x(12) +4 x(13) +19 x(14) +12 x(15) +1 x(16) +20 x(17) +14 x(18) +19 x(19) +18 x(20)  <=  76
c14:+2 x(1) +7 x(2) +18 x(3) +1 x(4) +20 x(5) +9 x(6) +14 x(7) +2 x(8) +2 x(9) +5 x(10) +14 x(11) +8 x(12) +3 x(13) +11 x(14) +3 x(15) +10 x(16) +2 x(17) +10 x(18) +2 x(19) +17 x(20)  <=  81
c15:+8 x(1) +17 x(2) +18 x(3) +10 x(4) +16 x(5) +10 x(6) +18 x(7) +10 x(8) +6 x(9) +11 x(10) +14 x(11) +3 x(12) +19 x(13) +10 x(14) +2 x(15) +18 x(16) +6 x(17) +6 x(18) +11 x(19) +10 x(20)  <=  66
c16:+12 x(1) +13 x(2) +11 x(3) +6 x(4) +13 x(5) +17 x(6) +3 x(7) +17 x(8) +8 x(9) +6 x(10) +12 x(11) +5 x(12) +18 x(13) +10 x(14) +14 x(15) +5 x(16) +17 x(17) +12 x(18) +3 x(19) +2 x(20)  <=  53
c17:+12 x(1) +16 x(2) +3 x(3) +7 x(4) +19 x(5) +20 x(6) +9 x(7) +10 x(8) +18 x(9) +2 x(10) +13 x(11) +14 x(12) +20 x(13) +7 x(14) +13 x(15) +17 x(16) +2 x(17) +5 x(18) +8 x(19) +12 x(20)  <=  93
c18:+14 x(1) +16 x(2) +4 x(3) +6 x(4) +2 x(5) +11 x(6) +6 x(7) +9 x(8) +9 x(9) +2 x(10) +18 x(11) +17 x(12) +18 x(13) +20 x(14) +5 x(15) +17 x(16) +11 x(17) +7 x(18) +17 x(19) +4 x(20)  <=  57
c19:+13 x(1) +1 x(2) +15 x(3) +4 x(4) +6 x(5) +19 x(6) +20 x(7) +11 x(8) +5 x(9) +2 x(10) +14 x(11) +20 x(12) +1 x(13) +20 x(14) +9 x(15) +13 x(16) +17 x(17) +19 x(18) +5 x(19) +11 x(20)  <=  68
c20:+9 x(1) +6 x(2) +17 x(3) +8 x(4) +20 x(5) +15 x(6) +13 x(7) +3 x(8) +12 x(9) +9 x(10) +18 x(11) +5 x(12) +11 x(13) +11 x(14) +13 x(15) +1 x(16) +15 x(17) +18 x(18) +18 x(19) +8 x(20)  <=  81
obj2:+20 x(1) +0 x(2) -20 x(3) -18 x(4) -15 x(5) +16 x(6) -1 x(7) +2 x(8) +0 x(9) -18 x(10) +16 x(11) -9 x(12) -9 x(13) +4 x(14) -1 x(15) -5 x(16) +6 x(17) +18 x(18) +5 x(19) -9 x(20)  <=  0
Binaries
x(1) x(2) x(3) x(4) x(5) x(6) x(7) x(8) x(9) x(10) x(11) x(12) x(13) x(14) x(15) x(16) x(17) x(18) x(19) x(20)
End
